instances/knapsack/discrete/knapsack_70_12.lp
\ Model knapsack_70_12
\ LP format - for model browsing. Use MPS format to capture full model detail.
\ Signature: 0x9699bb600e1f4c54
Minimize
  - 66 x[0] - 91 x[1] - 8 x[2] - 64 x[3] - 58 x[4] - 21 x[5] - 70 x[6]
   - 32 x[7] - 55 x[8] - 47 x[9] - 47 x[10] - 71 x[11] - 35 x[12] - 6 x[13]
   - 75 x[14] - 52 x[15] - 46 x[16] - 18 x[17] - 7 x[18] - 90 x[19]
   - 6 x[20] - 95 x[21] - 24 x[22] - 72 x[23] - 69 x[24] - 75 x[25]
   - 4 x[26] - 88 x[27] - 62 x[28] - 37 x[29] - 69 x[30] - 12 x[31]
   - 80 x[32] - 19 x[33] - 92 x[34] - 17 x[35] - 21 x[36] - 59 x[37]
   - 79 x[38] - 80 x[39] - 32 x[40] - 6 x[41] - 90 x[42] - 59 x[43]
   - 27 x[44] - 91 x[45] - 25 x[46] - 65 x[47] - 41 x[48] - 74 x[49]
   - 3 x[50] - 23 x[51] - 59 x[52] - 25 x[53] - 20 x[54] - 50 x[55]
   - 63 x[56] - 32 x[57] - 72 x[58] - 55 x[59] - 8 x[60] - 10 x[61]
   - 74 x[62] - 98 x[63] - 63 x[64] - 73 x[65] - 25 x[66] - 54 x[67]
   - 81 x[68] - 38 x[69]
Subject To
 primal_upper: 4 x[0] + 16 x[1] + 46 x[2] + 35 x[3] + 48 x[4] + 58 x[5]
   + 29 x[6] + 40 x[7] + 33 x[8] + 54 x[9] + 36 x[10] + 35 x[11] + 28 x[12]
   + 76 x[13] + 97 x[14] + x[15] + 93 x[16] + 24 x[17] + 17 x[18]
   + 22 x[19] + 33 x[20] + 76 x[21] + 76 x[22] + 75 x[23] + 85 x[24]
   + 76 x[25] + 62 x[26] + 36 x[27] + 42 x[28] + 39 x[29] + 78 x[30]
   + 80 x[31] + 32 x[32] + 41 x[33] + 88 x[34] + 45 x[35] + 96 x[36]
   + 17 x[37] + 68 x[38] + 15 x[39] + 59 x[40] + 58 x[41] + 26 x[42]
   + 38 x[43] + 83 x[44] + 83 x[45] + 50 x[46] + 74 x[47] + 87 x[48]
   + 84 x[49] + 99 x[50] + 76 x[51] + 89 x[52] + 44 x[53] + 37 x[54]
   + 28 x[55] + 49 x[56] + 3 x[57] + 4 x[58] + 58 x[59] + 65 x[60]
   + 51 x[61] + 64 x[62] + 79 x[63] + 44 x[64] + 44 x[65] + 69 x[66]
   + 55 x[67] + 52 x[68] + 46 x[69] + 0.4 r[0] + 1.6 r[1] + 4.6 r[2]
   + 3.5 r[3] + 4.8 r[4] + 5.8 r[5] + 2.9 r[6] + 4 r[7] + 3.3 r[8]
   + 5.4 r[9] + 3.6 r[10] + 3.5 r[11] + 2.8 r[12] + 7.6 r[13] + 9.7 r[14]
   + 0.1 r[15] + 9.3 r[16] + 2.4 r[17] + 1.7 r[18] + 2.2 r[19] + 3.3 r[20]
   + 7.6 r[21] + 7.6 r[22] + 7.5 r[23] + 8.5 r[24] + 7.6 r[25] + 6.2 r[26]
   + 3.6 r[27] + 4.2 r[28] + 3.9 r[29] + 7.8 r[30] + 8 r[31] + 3.2 r[32]
   + 4.1 r[33] + 8.8 r[34] + 4.5 r[35] + 9.6 r[36] + 1.7 r[37] + 6.8 r[38]
   + 1.5 r[39] + 5.9 r[40] + 5.8 r[41] + 2.6 r[42] + 3.8 r[43] + 8.3 r[44]
   + 8.3 r[45] + 5 r[46] + 7.4 r[47] + 8.7 r[48] + 8.4 r[49] + 9.9 r[50]
   + 7.6 r[51] + 8.9 r[52] + 4.4 r[53] + 3.7 r[54] + 2.8 r[55] + 4.9 r[56]
   + 0.3 r[57] + 0.4 r[58] + 5.8 r[59] + 6.5 r[60] + 5.1 r[61] + 6.4 r[62]
   + 7.9 r[63] + 4.4 r[64] + 4.4 r[65] + 6.9 r[66] + 5.5 r[67] + 5.2 r[68]
   + 4.6 r[69] <= 347
 primal_lower: 0.8098789665069839 x[0] + 1.892132256006079 x[1]
   + 2.449040131798938 x[2] + 1.278524092920201 x[3]
   + 1.319608977266442 x[4] + 1.354799653811972 x[5]
   + 2.957730165668234 x[6] + 1.416017748546668 x[7]
   + 2.066442939492598 x[8] + 4.168781142248091 x[9]
   + 0.5025216423143527 x[10] + 1.182987023038452 x[11]
   + 0.6106423627681453 x[12] + 4.001058270306237 x[13]
   + 0.0294435653020532 x[14] + 0.4132685349844357 x[15]
   + 0.3270097549827107 x[16] + 2.14761808586759 x[17]
   + 4.102575497135124 x[18] + 2.099316538727587 x[19]
   + 0.0164383444384176 x[20] + 2.405177928160552 x[21]
   + 4.325513963388622 x[22] + 0.3083434351396916 x[23]
   + 4.43119208528667 x[24] + 2.194999581480819 x[25]
   + 2.387968913905747 x[26] + 0.134682272963767 x[27]
   + 2.913003968977474 x[28] + 2.452127537743082 x[29]
   + 0.1513895801892199 x[30] + 2.921786078086474 x[31]
   + 1.178670072637747 x[32] + 3.880383941910929 x[33]
   + 2.908759934218448 x[34] + 2.342698359284369 x[35]
   + 1.960789872873507 x[36] + 2.414081856004104 x[37]
   + 4.325801334421013 x[38] + 1.760693365336367 x[39]
   + 0.1307791182822143 x[40] + 2.885129217556347 x[41]
   + 3.423640054787066 x[42] + 4.052292215793935 x[43]
   + 0.8796618072194634 x[44] + 1.582679561196614 x[45]
   + 1.841226103584371 x[46] + 4.485933847274888 x[47]
   + 0.9942460657461465 x[48] + 1.481615978888247 x[49]
   + 1.4184008872123 x[50] + 0.4052910199625612 x[51]
   + 1.265942097093045 x[52] + 0.2614552747108692 x[53]
   + 1.967597575793378 x[54] + 1.658117603037629 x[55]
   + 3.428229107342651 x[56] + 1.981285822893461 x[57]
   + 0.2870845817922609 x[58] + 2.320173274145255 x[59]
   + 1.274739418349488 x[60] + 3.943846496194506 x[61]
   + 1.251701816883683 x[62] + 0.644219406613415 x[63]
   + 3.53948042952804 x[64] + 0.2746857776288149 x[65]
   + 1.146479628639533 x[66] + 2.936100673656551 x[67]
   + 3.499343927786571 x[68] + 0.7806043374775373 x[69] + 69 u[0] + 74 u[1]
   + 80 u[2] + 73 u[3] + 26 u[4] + 67 u[5] + 39 u[6] + u[7] + 35 u[8]
   + 80 u[9] + 13 u[10] + u[11] + 66 u[12] + 62 u[13] + 46 u[14] + 94 u[15]
   + 23 u[16] + 62 u[17] + 95 u[18] + 44 u[19] + 15 u[20] + 61 u[21]
   + 6 u[22] + 16 u[23] + 42 u[24] + 18 u[25] + 44 u[26] + 37 u[27]
   + 47 u[28] + 65 u[29] + 99 u[30] + 69 u[31] + 53 u[32] + 59 u[33]
   + 54 u[34] + 11 u[35] + 74 u[36] + 74 u[37] + 42 u[38] + 80 u[39]
   + 21 u[40] + 11 u[41] + 8 u[42] + 67 u[43] + 9 u[44] + 32 u[45]
   + 67 u[46] + 71 u[47] + 21 u[48] + 50 u[49] + 28 u[50] + 74 u[51]
   + 39 u[52] + 46 u[53] + 10 u[54] + 17 u[55] + 55 u[56] + 24 u[57]
   + 90 u[58] + 64 u[59] + 46 u[60] + 92 u[61] + 5 u[62] + 16 u[63]
   + 93 u[64] + 22 u[65] + 66 u[66] + 64 u[67] + 82 u[68] + 27 u[69]
   <= 33449
 mccormick1[0]: - u[0] + r[0] <= 0
 mccormick1[1]: - u[1] + r[1] <= 0
 mccormick1[2]: - u[2] + r[2] <= 0
 mccormick1[3]: - u[3] + r[3] <= 0
 mccormick1[4]: - u[4] + r[4] <= 0
 mccormick1[5]: - u[5] + r[5] <= 0
 mccormick1[6]: - u[6] + r[6] <= 0
 mccormick1[7]: - u[7] + r[7] <= 0
 mccormick1[8]: - u[8] + r[8] <= 0
 mccormick1[9]: - u[9] + r[9] <= 0
 mccormick1[10]: - u[10] + r[10] <= 0
 mccormick1[11]: - u[11] + r[11] <= 0
 mccormick1[12]: - u[12] + r[12] <= 0
 mccormick1[13]: - u[13] + r[13] <= 0
 mccormick1[14]: - u[14] + r[14] <= 0
 mccormick1[15]: - u[15] + r[15] <= 0
 mccormick1[16]: - u[16] + r[16] <= 0
 mccormick1[17]: - u[17] + r[17] <= 0
 mccormick1[18]: - u[18] + r[18] <= 0
 mccormick1[19]: - u[19] + r[19] <= 0
 mccormick1[20]: - u[20] + r[20] <= 0
 mccormick1[21]: - u[21] + r[21] <= 0
 mccormick1[22]: - u[22] + r[22] <= 0
 mccormick1[23]: - u[23] + r[23] <= 0
 mccormick1[24]: - u[24] + r[24] <= 0
 mccormick1[25]: - u[25] + r[25] <= 0
 mccormick1[26]: - u[26] + r[26] <= 0
 mccormick1[27]: - u[27] + r[27] <= 0
 mccormick1[28]: - u[28] + r[28] <= 0
 mccormick1[29]: - u[29] + r[29] <= 0
 mccormick1[30]: - u[30] + r[30] <= 0
 mccormick1[31]: - u[31] + r[31] <= 0
 mccormick1[32]: - u[32] + r[32] <= 0
 mccormick1[33]: - u[33] + r[33] <= 0
 mccormick1[34]: - u[34] + r[34] <= 0
 mccormick1[35]: - u[35] + r[35] <= 0
 mccormick1[36]: - u[36] + r[36] <= 0
 mccormick1[37]: - u[37] + r[37] <= 0
 mccormick1[38]: - u[38] + r[38] <= 0
 mccormick1[39]: - u[39] + r[39] <= 0
 mccormick1[40]: - u[40] + r[40] <= 0
 mccormick1[41]: - u[41] + r[41] <= 0
 mccormick1[42]: - u[42] + r[42] <= 0
 mccormick1[43]: - u[43] + r[43] <= 0
 mccormick1[44]: - u[44] + r[44] <= 0
 mccormick1[45]: - u[45] + r[45] <= 0
 mccormick1[46]: - u[46] + r[46] <= 0
 mccormick1[47]: - u[47] + r[47] <= 0
 mccormick1[48]: - u[48] + r[48] <= 0
 mccormick1[49]: - u[49] + r[49] <= 0
 mccormick1[50]: - u[50] + r[50] <= 0
 mccormick1[51]: - u[51] + r[51] <= 0
 mccormick1[52]: - u[52] + r[52] <= 0
 mccormick1[53]: - u[53] + r[53] <= 0
 mccormick1[54]: - u[54] + r[54] <= 0
 mccormick1[55]: - u[55] + r[55] <= 0
 mccormick1[56]: - u[56] + r[56] <= 0
 mccormick1[57]: - u[57] + r[57] <= 0
 mccormick1[58]: - u[58] + r[58] <= 0
 mccormick1[59]: - u[59] + r[59] <= 0
 mccormick1[60]: - u[60] + r[60] <= 0
 mccormick1[61]: - u[61] + r[61] <= 0
 mccormick1[62]: - u[62] + r[62] <= 0
 mccormick1[63]: - u[63] + r[63] <= 0
 mccormick1[64]: - u[64] + r[64] <= 0
 mccormick1[65]: - u[65] + r[65] <= 0
 mccormick1[66]: - u[66] + r[66] <= 0
 mccormick1[67]: - u[67] + r[67] <= 0
 mccormick1[68]: - u[68] + r[68] <= 0
 mccormick1[69]: - u[69] + r[69] <= 0
 mccormick2[0]: - x[0] + r[0] <= 0
 mccormick2[1]: - x[1] + r[1] <= 0
 mccormick2[2]: - x[2] + r[2] <= 0
 mccormick2[3]: - x[3] + r[3] <= 0
 mccormick2[4]: - x[4] + r[4] <= 0
 mccormick2[5]: - x[5] + r[5] <= 0
 mccormick2[6]: - x[6] + r[6] <= 0
 mccormick2[7]: - x[7] + r[7] <= 0
 mccormick2[8]: - x[8] + r[8] <= 0
 mccormick2[9]: - x[9] + r[9] <= 0
 mccormick2[10]: - x[10] + r[10] <= 0
 mccormick2[11]: - x[11] + r[11] <= 0
 mccormick2[12]: - x[12] + r[12] <= 0
 mccormick2[13]: - x[13] + r[13] <= 0
 mccormick2[14]: - x[14] + r[14] <= 0
 mccormick2[15]: - x[15] + r[15] <= 0
 mccormick2[16]: - x[16] + r[16] <= 0
 mccormick2[17]: - x[17] + r[17] <= 0
 mccormick2[18]: - x[18] + r[18] <= 0
 mccormick2[19]: - x[19] + r[19] <= 0
 mccormick2[20]: - x[20] + r[20] <= 0
 mccormick2[21]: - x[21] + r[21] <= 0
 mccormick2[22]: - x[22] + r[22] <= 0
 mccormick2[23]: - x[23] + r[23] <= 0
 mccormick2[24]: - x[24] + r[24] <= 0
 mccormick2[25]: - x[25] + r[25] <= 0
 mccormick2[26]: - x[26] + r[26] <= 0
 mccormick2[27]: - x[27] + r[27] <= 0
 mccormick2[28]: - x[28] + r[28] <= 0
 mccormick2[29]: - x[29] + r[29] <= 0
 mccormick2[30]: - x[30] + r[30] <= 0
 mccormick2[31]: - x[31] + r[31] <= 0
 mccormick2[32]: - x[32] + r[32] <= 0
 mccormick2[33]: - x[33] + r[33] <= 0
 mccormick2[34]: - x[34] + r[34] <= 0
 mccormick2[35]: - x[35] + r[35] <= 0
 mccormick2[36]: - x[36] + r[36] <= 0
 mccormick2[37]: - x[37] + r[37] <= 0
 mccormick2[38]: - x[38] + r[38] <= 0
 mccormick2[39]: - x[39] + r[39] <= 0
 mccormick2[40]: - x[40] + r[40] <= 0
 mccormick2[41]: - x[41] + r[41] <= 0
 mccormick2[42]: - x[42] + r[42] <= 0
 mccormick2[43]: - x[43] + r[43] <= 0
 mccormick2[44]: - x[44] + r[44] <= 0
 mccormick2[45]: - x[45] + r[45] <= 0
 mccormick2[46]: - x[46] + r[46] <= 0
 mccormick2[47]: - x[47] + r[47] <= 0
 mccormick2[48]: - x[48] + r[48] <= 0
 mccormick2[49]: - x[49] + r[49] <= 0
 mccormick2[50]: - x[50] + r[50] <= 0
 mccormick2[51]: - x[51] + r[51] <= 0
 mccormick2[52]: - x[52] + r[52] <= 0
 mccormick2[53]: - x[53] + r[53] <= 0
 mccormick2[54]: - x[54] + r[54] <= 0
 mccormick2[55]: - x[55] + r[55] <= 0
 mccormick2[56]: - x[56] + r[56] <= 0
 mccormick2[57]: - x[57] + r[57] <= 0
 mccormick2[58]: - x[58] + r[58] <= 0
 mccormick2[59]: - x[59] + r[59] <= 0
 mccormick2[60]: - x[60] + r[60] <= 0
 mccormick2[61]: - x[61] + r[61] <= 0
 mccormick2[62]: - x[62] + r[62] <= 0
 mccormick2[63]: - x[63] + r[63] <= 0
 mccormick2[64]: - x[64] + r[64] <= 0
 mccormick2[65]: - x[65] + r[65] <= 0
 mccormick2[66]: - x[66] + r[66] <= 0
 mccormick2[67]: - x[67] + r[67] <= 0
 mccormick2[68]: - x[68] + r[68] <= 0
 mccormick2[69]: - x[69] + r[69] <= 0
 mccormick3[0]: x[0] + u[0] - r[0] <= 1
 mccormick3[1]: x[1] + u[1] - r[1] <= 1
 mccormick3[2]: x[2] + u[2] - r[2] <= 1
 mccormick3[3]: x[3] + u[3] - r[3] <= 1
 mccormick3[4]: x[4] + u[4] - r[4] <= 1
 mccormick3[5]: x[5] + u[5] - r[5] <= 1
 mccormick3[6]: x[6] + u[6] - r[6] <= 1
 mccormick3[7]: x[7] + u[7] - r[7] <= 1
 mccormick3[8]: x[8] + u[8] - r[8] <= 1
 mccormick3[9]: x[9] + u[9] - r[9] <= 1
 mccormick3[10]: x[10] + u[10] - r[10] <= 1
 mccormick3[11]: x[11] + u[11] - r[11] <= 1
 mccormick3[12]: x[12] + u[12] - r[12] <= 1
 mccormick3[13]: x[13] + u[13] - r[13] <= 1
 mccormick3[14]: x[14] + u[14] - r[14] <= 1
 mccormick3[15]: x[15] + u[15] - r[15] <= 1
 mccormick3[16]: x[16] + u[16] - r[16] <= 1
 mccormick3[17]: x[17] + u[17] - r[17] <= 1
 mccormick3[18]: x[18] + u[18] - r[18] <= 1
 mccormick3[19]: x[19] + u[19] - r[19] <= 1
 mccormick3[20]: x[20] + u[20] - r[20] <= 1
 mccormick3[21]: x[21] + u[21] - r[21] <= 1
 mccormick3[22]: x[22] + u[22] - r[22] <= 1
 mccormick3[23]: x[23] + u[23] - r[23] <= 1
 mccormick3[24]: x[24] + u[24] - r[24] <= 1
 mccormick3[25]: x[25] + u[25] - r[25] <= 1
 mccormick3[26]: x[26] + u[26] - r[26] <= 1
 mccormick3[27]: x[27] + u[27] - r[27] <= 1
 mccormick3[28]: x[28] + u[28] - r[28] <= 1
 mccormick3[29]: x[29] + u[29] - r[29] <= 1
 mccormick3[30]: x[30] + u[30] - r[30] <= 1
 mccormick3[31]: x[31] + u[31] - r[31] <= 1
 mccormick3[32]: x[32] + u[32] - r[32] <= 1
 mccormick3[33]: x[33] + u[33] - r[33] <= 1
 mccormick3[34]: x[34] + u[34] - r[34] <= 1
 mccormick3[35]: x[35] + u[35] - r[35] <= 1
 mccormick3[36]: x[36] + u[36] - r[36] <= 1
 mccormick3[37]: x[37] + u[37] - r[37] <= 1
 mccormick3[38]: x[38] + u[38] - r[38] <= 1
 mccormick3[39]: x[39] + u[39] - r[39] <= 1
 mccormick3[40]: x[40] + u[40] - r[40] <= 1
 mccormick3[41]: x[41] + u[41] - r[41] <= 1
 mccormick3[42]: x[42] + u[42] - r[42] <= 1
 mccormick3[43]: x[43] + u[43] - r[43] <= 1
 mccormick3[44]: x[44] + u[44] - r[44] <= 1
 mccormick3[45]: x[45] + u[45] - r[45] <= 1
 mccormick3[46]: x[46] + u[46] - r[46] <= 1
 mccormick3[47]: x[47] + u[47] - r[47] <= 1
 mccormick3[48]: x[48] + u[48] - r[48] <= 1
 mccormick3[49]: x[49] + u[49] - r[49] <= 1
 mccormick3[50]: x[50] + u[50] - r[50] <= 1
 mccormick3[51]: x[51] + u[51] - r[51] <= 1
 mccormick3[52]: x[52] + u[52] - r[52] <= 1
 mccormick3[53]: x[53] + u[53] - r[53] <= 1
 mccormick3[54]: x[54] + u[54] - r[54] <= 1
 mccormick3[55]: x[55] + u[55] - r[55] <= 1
 mccormick3[56]: x[56] + u[56] - r[56] <= 1
 mccormick3[57]: x[57] + u[57] - r[57] <= 1
 mccormick3[58]: x[58] + u[58] - r[58] <= 1
 mccormick3[59]: x[59] + u[59] - r[59] <= 1
 mccormick3[60]: x[60] + u[60] - r[60] <= 1
 mccormick3[61]: x[61] + u[61] - r[61] <= 1
 mccormick3[62]: x[62] + u[62] - r[62] <= 1
 mccormick3[63]: x[63] + u[63] - r[63] <= 1
 mccormick3[64]: x[64] + u[64] - r[64] <= 1
 mccormick3[65]: x[65] + u[65] - r[65] <= 1
 mccormick3[66]: x[66] + u[66] - r[66] <= 1
 mccormick3[67]: x[67] + u[67] - r[67] <= 1
 mccormick3[68]: x[68] + u[68] - r[68] <= 1
 mccormick3[69]: x[69] + u[69] - r[69] <= 1
Bounds
Binaries
 x[0] x[1] x[2] x[3] x[4] x[5] x[6] x[7] x[8] x[9] x[10] x[11] x[12] x[13]
 x[14] x[15] x[16] x[17] x[18] x[19] x[20] x[21] x[22] x[23] x[24] x[25]
 x[26] x[27] x[28] x[29] x[30] x[31] x[32] x[33] x[34] x[35] x[36] x[37]
 x[38] x[39] x[40] x[41] x[42] x[43] x[44] x[45] x[46] x[47] x[48] x[49]
 x[50] x[51] x[52] x[53] x[54] x[55] x[56] x[57] x[58] x[59] x[60] x[61]
 x[62] x[63] x[64] x[65] x[66] x[67] x[68] x[69] u[0] u[1] u[2] u[3] u[4]
 u[5] u[6] u[7] u[8] u[9] u[10] u[11] u[12] u[13] u[14] u[15] u[16] u[17]
 u[18] u[19] u[20] u[21] u[22] u[23] u[24] u[25] u[26] u[27] u[28] u[29]
 u[30] u[31] u[32] u[33] u[34] u[35] u[36] u[37] u[38] u[39] u[40] u[41]
 u[42] u[43] u[44] u[45] u[46] u[47] u[48] u[49] u[50] u[51] u[52] u[53]
 u[54] u[55] u[56] u[57] u[58] u[59] u[60] u[61] u[62] u[63] u[64] u[65]
 u[66] u[67] u[68] u[69] r[0] r[1] r[2] r[3] r[4] r[5] r[6] r[7] r[8] r[9]
 r[10] r[11] r[12] r[13] r[14] r[15] r[16] r[17] r[18] r[19] r[20] r[21]
 r[22] r[23] r[24] r[25] r[26] r[27] r[28] r[29] r[30] r[31] r[32] r[33]
 r[34] r[35] r[36] r[37] r[38] r[39] r[40] r[41] r[42] r[43] r[44] r[45]
 r[46] r[47] r[48] r[49] r[50] r[51] r[52] r[53] r[54] r[55] r[56] r[57]
 r[58] r[59] r[60] r[61] r[62] r[63] r[64] r[65] r[66] r[67] r[68] r[69]
End
