instances/knapsack/discrete/knapsack_70_12.kp
34586
70
347

4 0.4 66
16 1.6 91
46 4.6 8
35 3.5 64
48 4.8 58
58 5.8 21
29 2.9 70
40 4.0 32
33 3.3 55
54 5.4 47
36 3.6 47
35 3.5 71
28 2.8 35
76 7.6 6
97 9.7 75
1 0.1 52
93 9.3 46
24 2.4 18
17 1.7 7
22 2.2 90
33 3.3 6
76 7.6 95
76 7.6 24
75 7.5 72
85 8.5 69
76 7.6 75
62 6.2 4
36 3.6 88
42 4.2 62
39 3.9 37
78 7.8 69
80 8.0 12
32 3.2 80
41 4.1 19
88 8.8 92
45 4.5 17
96 9.6 21
17 1.7 59
68 6.8 79
15 1.5 80
59 5.9 32
58 5.8 6
26 2.6 90
38 3.8 59
83 8.3 27
83 8.3 91
50 5.0 25
74 7.4 65
87 8.7 41
84 8.4 74
99 9.9 3
76 7.6 23
89 8.9 59
44 4.4 25
37 3.7 20
28 2.8 50
49 4.9 63
3 0.3 32
4 0.4 72
58 5.8 55
65 6.5 8
51 5.1 10
64 6.4 74
79 7.9 98
44 4.4 63
44 4.4 73
69 6.9 25
55 5.5 54
52 5.2 81
46 4.6 38

33449
317

[0.8098789665069839 1.8921322560060787 2.4490401317989376 1.2785240929202013 1.3196089772664423 1.3547996538119722 2.9577301656682344 1.4160177485466678 2.0664429394925983 4.168781142248091 0.5025216423143527 1.182987023038452 0.6106423627681453 4.0010582703062365 0.029443565302053196 0.41326853498443566 0.3270097549827107 2.14761808586759 4.102575497135124 2.0993165387275874 0.016438344438417622 2.4051779281605516 4.325513963388622 0.30834343513969165 4.43119208528667 2.194999581480819 2.3879689139057474 0.13468227296376697 2.9130039689774745 2.452127537743082 0.15138958018921989 2.9217860780864737 1.178670072637747 3.8803839419109294 2.908759934218448 2.3426983592843693 1.9607898728735071 2.414081856004104 4.325801334421013 1.7606933653363674 0.13077911828221425 2.885129217556347 3.423640054787066 4.052292215793935 0.8796618072194634 1.582679561196614 1.8412261035843707 4.485933847274888 0.9942460657461465 1.4816159788882475 1.4184008872123 0.4052910199625612 1.2659420970930453 0.26145527471086916 1.9675975757933777 1.6581176030376295 3.4282291073426507 1.9812858228934611 0.28708458179226093 2.3201732741452545 1.2747394183494885 3.943846496194506 1.2517018168836833 0.644219406613415 3.53948042952804 0.27468577762881485 1.1464796286395331 2.9361006736565507 3.499343927786571 0.7806043374775373]

[69 74 80 73 26 67 39 1 35 80 13 1 66 62 46 94 23 62 95 44 15 61 6 16 42 18 44 37 47 65 99 69 53 59 54 11 74 74 42 80 21 11 8 67 9 32 67 71 21 50 28 74 39 46 10 17 55 24 90 64 46 92 5 16 93 22 66 64 82 27]
